368
892
1149
1262
1392
1502
1589
1666
1736
1806
1886
1960
2013
2055
2077
2089
2106
2109
2113
2119
2122
2125
2131
2137
2149
2165
2190
2201
2203
2205
2206
2208
2208
2210
2213
2216
2221
2231
2242
2258
2273
2284
2296
2296
2296
2296
2296
2296
2296
2296
2296
2296
2296
2296
2296
2296
2296
2296
2296
2296
2296
2296
2296
2296
2296
2296
2296
2296
2296
2296
2296
2296
2296
2296
2296
2296
2296
2296
2296
2296
2296
2296
2296
2296
2296
2296
2296
2296
2296
2296
2296
2296
2296
2296
2296
2296
2296
2296
2296
